(set-info :smt-lib-version 2.7)
(set-logic QF_EIA)
(set-info :source |
Generated by: Florian Frohn
Generator: LoAT
Application: proving lower bounds on the worst-case runtime of transition systems
Target solver: SwInE
Time limit: 1.0
Benchmarks generated by the verification tool LoAT to evaluate the SMT solver
SwInE. We extracted all benchmarks with exponentiation that were generated by
LoAT when analyzing the examples from the category LIA-Lin (linear CHCs with
linear integer arithmetic) of the CHC competitions 2022 and 2023, and when
analyzing the examples from the categories "Termination of Integer Transition
Systems" and "Complexity of Integer Transition Systems" of the Termination and
Complexity Competition 2024. From the entire set, we selected those where
* SwInE v0.1.0 or SwInE-Z3 v0.1.2 failed or needed more than 1 second, or
* SwInE-Z3 v0.1.2 failed without phasing, a technique to prevent SwInE from
  computing with huge constants (described here
  https://arxiv.org/abs/2502.04761)
If several selected benchmarks only differed in lines not containing
exponentiation, we kept only one of them. This benchmark is known to be
satisfiable with the slightly different semantics of exponentiation used by the
versions of SwInE mentioned above.
|)
(set-info :license "https://creativecommons.org/licenses/by/4.0/")
(set-info :category "industrial")
(set-info :status unknown)

(declare-fun i1 () Int)
(declare-fun it321 () Int)
(declare-fun it322 () Int)
(declare-fun i2 () Int)
(declare-fun i3 () Int)
(declare-fun it323 () Int)
(declare-fun it324 () Int)
(declare-fun i4 () Int)
(declare-fun it325 () Int)
(declare-fun i5 () Int)
(declare-fun i6 () Int)
(declare-fun it326 () Int)
(declare-fun i7 () Int)
(declare-fun it327 () Int)
(declare-fun it357 () Int)
(declare-fun it358 () Int)
(declare-fun it359 () Int)
(declare-fun it360 () Int)
(declare-fun it361 () Int)
(declare-fun it362 () Int)
(declare-fun it363 () Int)
(declare-fun it372 () Int)
(declare-fun it373 () Int)
(declare-fun it374 () Int)
(declare-fun it375 () Int)
(declare-fun it376 () Int)
(declare-fun it377 () Int)
(declare-fun it378 () Int)
(declare-fun it379 () Int)
(declare-fun it380 () Int)
(declare-fun it381 () Int)
(declare-fun it382 () Int)
(declare-fun it383 () Int)
(declare-fun it384 () Int)
(declare-fun it385 () Int)
(declare-fun it387 () Int)
(declare-fun it388 () Int)
(declare-fun it389 () Int)
(declare-fun it390 () Int)
(declare-fun it391 () Int)
(declare-fun it392 () Int)
(declare-fun it393 () Int)
(declare-fun it140 () Int)
(assert (= (+ i1 (- 1)) 0))
(assert (= (+ it321 (- 2)) 0))
(assert (= (+ (* i2 (- 1)) it322 (- 1)) 0))
(assert (= (+ it323 (* i3 (- 1))) 0))
(assert (= (+ (* i4 (- 1)) it324) 0))
(assert (= (+ (* i5 (- 1)) it325) 0))
(assert (= (+ it326 (* i6 (- 1))) 0))
(assert (= (+ it327 (* i7 (- 1))) 0))
(assert (and (> it323 0)
     (<= (+ it326 (- 5)) 0)
     (= (+ it321 (- 2)) 0)
     (<= (+ (* it326 (- 1)) (- 5)) 0)))
(assert (= (+ it357 (- 3)) 0))
(assert (= (+ it358 (* it322 (- 1)) (- 2)) 0))
(assert (= (+ (* it323 (- 1)) it359) 0))
(assert (= (+ (* it323 (- 1)) it360) 0))
(assert (= (+ it361 (* it327 (- 1))) 0))
(assert (= (+ (* it326 (- 1)) it362) 0))
(assert (= (+ (* it327 (- 1)) it363) 0))
(assert (let ((a!1 (< (+ (+ 0 (* it361 (- 1))) (** it360 2) (** it362 5)) (+ 0 0))))
  (and a!1 (= (+ it357 (- 3)) 0) (> it360 0))))
(assert (= (+ it372 (- 3)) 0))
(assert (= (+ (* it358 (- 1)) it373 (- 1)) 0))
(assert (= (+ (* it359 (- 1)) it374) 0))
(assert (= (+ it375 (* it360 2)) 0))
(assert (= (+ (+ 0 (* it361 (- 3))) (* (** it362 3) (+ 0 2)) (+ 0 it376))
   (+ 0 0)))
(assert (= (+ (* it362 (- 1)) it377) 0))
(assert (= (+ it378 (* it363 (- 1))) 0))
(assert (let ((a!1 (< (+ (+ 0 (* it376 (- 1))) (** it375 2) (** it377 5)) (+ 0 0))))
  (and (= (+ it372 (- 3)) 0) (< it375 0) a!1)))
(assert (= (+ it379 (- 3)) 0))
(assert (= (+ it380 (* it373 (- 1)) (- 1)) 0))
(assert (= (+ it381 (* it374 (- 1))) 0))
(assert (= (+ (* it375 2) it382) 0))
(assert (= (+ (* (** it377 3) (+ 0 2)) (+ 0 it383) (+ 0 (* it376 (- 3))))
   (+ 0 0)))
(assert (= (+ it384 (* it377 (- 1))) 0))
(assert (= (+ (* it378 (- 1)) it385) 0))
(assert (let ((a!1 (< (+ (** it382 2) (+ 0 (* it383 (- 1))) (** it384 5)) (+ 0 0))))
  (and a!1 (= (+ it379 (- 3)) 0) (> it382 0))))
(assert (= (+ it387 (- 3)) 0))
(assert (= (+ (* it380 (- 1)) it388 (- 1)) 0))
(assert (= (+ (* it381 (- 1)) it389) 0))
(assert (= (+ it390 (* it382 2)) 0))
(assert (let ((a!1 (+ (+ 0 (+ (* it383 (- 3)) it391)) (* (** it384 3) (+ 0 2)))))
  (= a!1 (+ 0 0))))
(assert (= (+ (* it384 (- 1)) it392) 0))
(assert (= (+ it393 (* it385 (- 1))) 0))
(assert (let ((a!1 (* (** it390 2) (** (** 4 (+ it140 (- 1))) (+ 0 2))))
      (a!2 (* (* (** 9 (+ it140 (- 1))) (** it392 3)) (+ 0 (- 1))))
      (a!4 (> (+ (+ 0 it391)
                 (* (** it392 5) (+ 0 (- 1)))
                 (* (** it390 2) (+ 0 (- 1))))
              (+ 0 0)))
      (a!5 (* (* (** 9 (+ it140 (- 1))) (** it392 3)) (+ 0 (- 3))))
      (a!6 (* (* (** 9 (+ it140 (- 1))) (+ 0 it391)) (+ 0 3))))
(let ((a!3 (+ (** it392 3)
              (* a!1 (+ 0 (- 1)))
              a!2
              (* (** 9 (+ it140 (- 1))) (+ 0 it391))
              (* (** it392 5) (+ 0 (- 1)))))
      (a!7 (> (+ (** it392 3)
                 (* a!1 (+ 0 (- 4)))
                 a!5
                 a!6
                 (* (** it392 5) (+ 0 (- 1))))
              (+ 0 0))))
  (and (> (* it390 (- 1)) 0)
       (> a!3 (+ 0 0))
       a!4
       a!7
       (>= (+ it140 (- 1)) 0)
       (> (* it390 (- 2)) 0)
       (>= (+ (* it387 (- 1)) 3) 0)
       (>= (+ it387 (- 3)) 0)))))
(check-sat)
(exit)
